TSPLib/instances/tsp_20.tsp
NAME: tsp_20
TYPE: TSP
DIMENSION: 20
EDGE_WEIGHT_TYPE: EUC_2D
NODE_COORD_SECTION
1 1 359
2 64 333
3 28 89
4 5 217
5 75 159
6 71 52
7 71 207
8 16 175
9 65 74
10 97 46
11 82 318
12 34 41
13 80 164
14 71 40
15 93 395
16 37 391
17 65 20
18 65 73
19 99 153
20 39 347
EOF
